c Generated by SAT Solver
p cnf 5003 1286
101 102 103 0
201 202 203 0
301 302 303 0
401 402 403 0
501 502 503 0
601 602 603 0
701 702 703 0
801 802 803 0
901 902 903 0
1001 1002 1003 0
1101 1102 1103 0
1201 1202 1203 0
1301 1302 1303 0
1401 1402 1403 0
1501 1502 1503 0
1601 1602 1603 0
1701 1702 1703 0
1801 1802 1803 0
1901 1902 1903 0
2001 2002 2003 0
2101 2102 2103 0
2201 2202 2203 0
2301 2302 2303 0
2401 2402 2403 0
2501 2502 2503 0
2601 2602 2603 0
2701 2702 2703 0
2801 2802 2803 0
2901 2902 2903 0
3001 3002 3003 0
3101 3102 3103 0
3201 3202 3203 0
3301 3302 3303 0
3401 3402 3403 0
3501 3502 3503 0
3601 3602 3603 0
3701 3702 3703 0
3801 3802 3803 0
3901 3902 3903 0
4001 4002 4003 0
4101 4102 4103 0
4201 4202 4203 0
4301 4302 4303 0
4401 4402 4403 0
4501 4502 4503 0
4601 4602 4603 0
4701 4702 4703 0
4801 4802 4803 0
4901 4902 4903 0
5001 5002 5003 0
-101 -102 0
-101 -103 0
-102 -103 0
-201 -202 0
-201 -203 0
-202 -203 0
-301 -302 0
-301 -303 0
-302 -303 0
-401 -402 0
-401 -403 0
-402 -403 0
-501 -502 0
-501 -503 0
-502 -503 0
-601 -602 0
-601 -603 0
-602 -603 0
-701 -702 0
-701 -703 0
-702 -703 0
-801 -802 0
-801 -803 0
-802 -803 0
-901 -902 0
-901 -903 0
-902 -903 0
-1001 -1002 0
-1001 -1003 0
-1002 -1003 0
-1101 -1102 0
-1101 -1103 0
-1102 -1103 0
-1201 -1202 0
-1201 -1203 0
-1202 -1203 0
-1301 -1302 0
-1301 -1303 0
-1302 -1303 0
-1401 -1402 0
-1401 -1403 0
-1402 -1403 0
-1501 -1502 0
-1501 -1503 0
-1502 -1503 0
-1601 -1602 0
-1601 -1603 0
-1602 -1603 0
-1701 -1702 0
-1701 -1703 0
-1702 -1703 0
-1801 -1802 0
-1801 -1803 0
-1802 -1803 0
-1901 -1902 0
-1901 -1903 0
-1902 -1903 0
-2001 -2002 0
-2001 -2003 0
-2002 -2003 0
-2101 -2102 0
-2101 -2103 0
-2102 -2103 0
-2201 -2202 0
-2201 -2203 0
-2202 -2203 0
-2301 -2302 0
-2301 -2303 0
-2302 -2303 0
-2401 -2402 0
-2401 -2403 0
-2402 -2403 0
-2501 -2502 0
-2501 -2503 0
-2502 -2503 0
-2601 -2602 0
-2601 -2603 0
-2602 -2603 0
-2701 -2702 0
-2701 -2703 0
-2702 -2703 0
-2801 -2802 0
-2801 -2803 0
-2802 -2803 0
-2901 -2902 0
-2901 -2903 0
-2902 -2903 0
-3001 -3002 0
-3001 -3003 0
-3002 -3003 0
-3101 -3102 0
-3101 -3103 0
-3102 -3103 0
-3201 -3202 0
-3201 -3203 0
-3202 -3203 0
-3301 -3302 0
-3301 -3303 0
-3302 -3303 0
-3401 -3402 0
-3401 -3403 0
-3402 -3403 0
-3501 -3502 0
-3501 -3503 0
-3502 -3503 0
-3601 -3602 0
-3601 -3603 0
-3602 -3603 0
-3701 -3702 0
-3701 -3703 0
-3702 -3703 0
-3801 -3802 0
-3801 -3803 0
-3802 -3803 0
-3901 -3902 0
-3901 -3903 0
-3902 -3903 0
-4001 -4002 0
-4001 -4003 0
-4002 -4003 0
-4101 -4102 0
-4101 -4103 0
-4102 -4103 0
-4201 -4202 0
-4201 -4203 0
-4202 -4203 0
-4301 -4302 0
-4301 -4303 0
-4302 -4303 0
-4401 -4402 0
-4401 -4403 0
-4402 -4403 0
-4501 -4502 0
-4501 -4503 0
-4502 -4503 0
-4601 -4602 0
-4601 -4603 0
-4602 -4603 0
-4701 -4702 0
-4701 -4703 0
-4702 -4703 0
-4801 -4802 0
-4801 -4803 0
-4802 -4803 0
-4901 -4902 0
-4901 -4903 0
-4902 -4903 0
-5001 -5002 0
-5001 -5003 0
-5002 -5003 0
-101 -901 0
-102 -902 0
-103 -903 0
-101 -1001 0
-102 -1002 0
-103 -1003 0
-101 -1401 0
-102 -1402 0
-103 -1403 0
-101 -1501 0
-102 -1502 0
-103 -1503 0
-101 -2301 0
-102 -2302 0
-103 -2303 0
-101 -2601 0
-102 -2602 0
-103 -2603 0
-101 -2901 0
-102 -2902 0
-103 -2903 0
-101 -3201 0
-102 -3202 0
-103 -3203 0
-101 -3901 0
-102 -3902 0
-103 -3903 0
-101 -4301 0
-102 -4302 0
-103 -4303 0
-101 -4501 0
-102 -4502 0
-103 -4503 0
-101 -4601 0
-102 -4602 0
-103 -4603 0
-101 -4701 0
-102 -4702 0
-103 -4703 0
-101 -4801 0
-102 -4802 0
-103 -4803 0
-201 -901 0
-202 -902 0
-203 -903 0
-201 -1001 0
-202 -1002 0
-203 -1003 0
-201 -1301 0
-202 -1302 0
-203 -1303 0
-201 -1401 0
-202 -1402 0
-203 -1403 0
-201 -2001 0
-202 -2002 0
-203 -2003 0
-201 -2401 0
-202 -2402 0
-203 -2403 0
-201 -2601 0
-202 -2602 0
-203 -2603 0
-201 -3001 0
-202 -3002 0
-203 -3003 0
-201 -3901 0
-202 -3902 0
-203 -3903 0
-201 -4001 0
-202 -4002 0
-203 -4003 0
-201 -4101 0
-202 -4102 0
-203 -4103 0
-201 -4801 0
-202 -4802 0
-203 -4803 0
-301 -601 0
-302 -602 0
-303 -603 0
-301 -701 0
-302 -702 0
-303 -703 0
-301 -801 0
-302 -802 0
-303 -803 0
-301 -901 0
-302 -902 0
-303 -903 0
-301 -1001 0
-302 -1002 0
-303 -1003 0
-301 -1201 0
-302 -1202 0
-303 -1203 0
-301 -1301 0
-302 -1302 0
-303 -1303 0
-301 -1401 0
-302 -1402 0
-303 -1403 0
-301 -2101 0
-302 -2102 0
-303 -2103 0
-301 -2201 0
-302 -2202 0
-303 -2203 0
-301 -2801 0
-302 -2802 0
-303 -2803 0
-301 -3001 0
-302 -3002 0
-303 -3003 0
-301 -3101 0
-302 -3102 0
-303 -3103 0
-301 -3401 0
-302 -3402 0
-303 -3403 0
-301 -3501 0
-302 -3502 0
-303 -3503 0
-301 -3801 0
-302 -3802 0
-303 -3803 0
-301 -3901 0
-302 -3902 0
-303 -3903 0
-301 -4301 0
-302 -4302 0
-303 -4303 0
-301 -4401 0
-302 -4402 0
-303 -4403 0
-301 -4601 0
-302 -4602 0
-303 -4603 0
-301 -4901 0
-302 -4902 0
-303 -4903 0
-401 -501 0
-402 -502 0
-403 -503 0
-401 -601 0
-402 -602 0
-403 -603 0
-401 -801 0
-402 -802 0
-403 -803 0
-401 -1601 0
-402 -1602 0
-403 -1603 0
-401 -2701 0
-402 -2702 0
-403 -2703 0
-401 -3101 0
-402 -3102 0
-403 -3103 0
-401 -3201 0
-402 -3202 0
-403 -3203 0
-401 -3501 0
-402 -3502 0
-403 -3503 0
-401 -3601 0
-402 -3602 0
-403 -3603 0
-401 -3801 0
-402 -3802 0
-403 -3803 0
-401 -3901 0
-402 -3902 0
-403 -3903 0
-401 -4201 0
-402 -4202 0
-403 -4203 0
-401 -4601 0
-402 -4602 0
-403 -4603 0
-501 -801 0
-502 -802 0
-503 -803 0
-501 -1401 0
-502 -1402 0
-503 -1403 0
-501 -1501 0
-502 -1502 0
-503 -1503 0
-501 -1601 0
-502 -1602 0
-503 -1603 0
-501 -1801 0
-502 -1802 0
-503 -1803 0
-501 -2001 0
-502 -2002 0
-503 -2003 0
-501 -2201 0
-502 -2202 0
-503 -2203 0
-501 -2501 0
-502 -2502 0
-503 -2503 0
-501 -2701 0
-502 -2702 0
-503 -2703 0
-501 -2901 0
-502 -2902 0
-503 -2903 0
-501 -3601 0
-502 -3602 0
-503 -3603 0
-501 -3801 0
-502 -3802 0
-503 -3803 0
-501 -4001 0
-502 -4002 0
-503 -4003 0
-501 -4701 0
-502 -4702 0
-503 -4703 0
-501 -4801 0
-502 -4802 0
-503 -4803 0
-501 -5001 0
-502 -5002 0
-503 -5003 0
-601 -1501 0
-602 -1502 0
-603 -1503 0
-601 -1601 0
-602 -1602 0
-603 -1603 0
-601 -1801 0
-602 -1802 0
-603 -1803 0
-601 -2201 0
-602 -2202 0
-603 -2203 0
-601 -2501 0
-602 -2502 0
-603 -2503 0
-601 -3401 0
-602 -3402 0
-603 -3403 0
-601 -3701 0
-602 -3702 0
-603 -3703 0
-601 -3901 0
-602 -3902 0
-603 -3903 0
-601 -4101 0
-602 -4102 0
-603 -4103 0
-601 -4201 0
-602 -4202 0
-603 -4203 0
-601 -4701 0
-602 -4702 0
-603 -4703 0
-601 -4801 0
-602 -4802 0
-603 -4803 0
-701 -1101 0
-702 -1102 0
-703 -1103 0
-701 -1401 0
-702 -1402 0
-703 -1403 0
-701 -1801 0
-702 -1802 0
-703 -1803 0
-701 -1901 0
-702 -1902 0
-703 -1903 0
-701 -2101 0
-702 -2102 0
-703 -2103 0
-701 -2301 0
-702 -2302 0
-703 -2303 0
-701 -2601 0
-702 -2602 0
-703 -2603 0
-701 -4301 0
-702 -4302 0
-703 -4303 0
-701 -4501 0
-702 -4502 0
-703 -4503 0
-701 -5001 0
-702 -5002 0
-703 -5003 0
-801 -1301 0
-802 -1302 0
-803 -1303 0
-801 -1601 0
-802 -1602 0
-803 -1603 0
-801 -1801 0
-802 -1802 0
-803 -1803 0
-801 -1901 0
-802 -1902 0
-803 -1903 0
-801 -2201 0
-802 -2202 0
-803 -2203 0
-801 -2301 0
-802 -2302 0
-803 -2303 0
-801 -2601 0
-802 -2602 0
-803 -2603 0
-801 -3201 0
-802 -3202 0
-803 -3203 0
-801 -3901 0
-802 -3902 0
-803 -3903 0
-801 -4201 0
-802 -4202 0
-803 -4203 0
-801 -4301 0
-802 -4302 0
-803 -4303 0
-801 -4701 0
-802 -4702 0
-803 -4703 0
-901 -1001 0
-902 -1002 0
-903 -1003 0
-901 -1201 0
-902 -1202 0
-903 -1203 0
-901 -1501 0
-902 -1502 0
-903 -1503 0
-901 -1601 0
-902 -1602 0
-903 -1603 0
-901 -1701 0
-902 -1702 0
-903 -1703 0
-901 -2001 0
-902 -2002 0
-903 -2003 0
-901 -2101 0
-902 -2102 0
-903 -2103 0
-901 -2701 0
-902 -2702 0
-903 -2703 0
-901 -3301 0
-902 -3302 0
-903 -3303 0
-901 -5001 0
-902 -5002 0
-903 -5003 0
-1001 -1201 0
-1002 -1202 0
-1003 -1203 0
-1001 -1501 0
-1002 -1502 0
-1003 -1503 0
-1001 -1801 0
-1002 -1802 0
-1003 -1803 0
-1001 -2101 0
-1002 -2102 0
-1003 -2103 0
-1001 -2201 0
-1002 -2202 0
-1003 -2203 0
-1001 -2601 0
-1002 -2602 0
-1003 -2603 0
-1001 -2701 0
-1002 -2702 0
-1003 -2703 0
-1001 -2901 0
-1002 -2902 0
-1003 -2903 0
-1001 -3301 0
-1002 -3302 0
-1003 -3303 0
-1001 -3401 0
-1002 -3402 0
-1003 -3403 0
-1001 -3501 0
-1002 -3502 0
-1003 -3503 0
-1001 -3701 0
-1002 -3702 0
-1003 -3703 0
-1001 -4301 0
-1002 -4302 0
-1003 -4303 0
-1001 -4401 0
-1002 -4402 0
-1003 -4403 0
-1001 -4501 0
-1002 -4502 0
-1003 -4503 0
-1001 -4701 0
-1002 -4702 0
-1003 -4703 0
-1001 -4801 0
-1002 -4802 0
-1003 -4803 0
-1101 -1201 0
-1102 -1202 0
-1103 -1203 0
-1101 -1501 0
-1102 -1502 0
-1103 -1503 0
-1101 -1601 0
-1102 -1602 0
-1103 -1603 0
-1101 -1701 0
-1102 -1702 0
-1103 -1703 0
-1101 -1801 0
-1102 -1802 0
-1103 -1803 0
-1101 -2901 0
-1102 -2902 0
-1103 -2903 0
-1101 -3201 0
-1102 -3202 0
-1103 -3203 0
-1101 -3301 0
-1102 -3302 0
-1103 -3303 0
-1101 -3701 0
-1102 -3702 0
-1103 -3703 0
-1101 -4201 0
-1102 -4202 0
-1103 -4203 0
-1101 -5001 0
-1102 -5002 0
-1103 -5003 0
-1201 -1801 0
-1202 -1802 0
-1203 -1803 0
-1201 -1901 0
-1202 -1902 0
-1203 -1903 0
-1201 -2401 0
-1202 -2402 0
-1203 -2403 0
-1201 -2901 0
-1202 -2902 0
-1203 -2903 0
-1201 -3201 0
-1202 -3202 0
-1203 -3203 0
-1201 -3301 0
-1202 -3302 0
-1203 -3303 0
-1201 -3601 0
-1202 -3602 0
-1203 -3603 0
-1301 -1501 0
-1302 -1502 0
-1303 -1503 0
-1301 -2001 0
-1302 -2002 0
-1303 -2003 0
-1301 -2401 0
-1302 -2402 0
-1303 -2403 0
-1301 -3301 0
-1302 -3302 0
-1303 -3303 0
-1301 -3601 0
-1302 -3602 0
-1303 -3603 0
-1301 -4601 0
-1302 -4602 0
-1303 -4603 0
-1301 -5001 0
-1302 -5002 0
-1303 -5003 0
-1401 -1501 0
-1402 -1502 0
-1403 -1503 0
-1401 -1601 0
-1402 -1602 0
-1403 -1603 0
-1401 -1801 0
-1402 -1802 0
-1403 -1803 0
-1401 -2201 0
-1402 -2202 0
-1403 -2203 0
-1401 -2401 0
-1402 -2402 0
-1403 -2403 0
-1401 -2601 0
-1402 -2602 0
-1403 -2603 0
-1401 -3401 0
-1402 -3402 0
-1403 -3403 0
-1401 -4001 0
-1402 -4002 0
-1403 -4003 0
-1401 -4101 0
-1402 -4102 0
-1403 -4103 0
-1401 -4501 0
-1402 -4502 0
-1403 -4503 0
-1401 -4801 0
-1402 -4802 0
-1403 -4803 0
-1401 -4901 0
-1402 -4902 0
-1403 -4903 0
-1501 -2001 0
-1502 -2002 0
-1503 -2003 0
-1501 -2301 0
-1502 -2302 0
-1503 -2303 0
-1501 -3001 0
-1502 -3002 0
-1503 -3003 0
-1501 -3501 0
-1502 -3502 0
-1503 -3503 0
-1501 -3601 0
-1502 -3602 0
-1503 -3603 0
-1501 -3701 0
-1502 -3702 0
-1503 -3703 0
-1501 -3901 0
-1502 -3902 0
-1503 -3903 0
-1501 -4701 0
-1502 -4702 0
-1503 -4703 0
-1601 -1701 0
-1602 -1702 0
-1603 -1703 0
-1601 -2501 0
-1602 -2502 0
-1603 -2503 0
-1601 -2601 0
-1602 -2602 0
-1603 -2603 0
-1601 -2801 0
-1602 -2802 0
-1603 -2803 0
-1601 -2901 0
-1602 -2902 0
-1603 -2903 0
-1601 -3101 0
-1602 -3102 0
-1603 -3103 0
-1601 -3701 0
-1602 -3702 0
-1603 -3703 0
-1601 -4001 0
-1602 -4002 0
-1603 -4003 0
-1601 -4101 0
-1602 -4102 0
-1603 -4103 0
-1601 -4301 0
-1602 -4302 0
-1603 -4303 0
-1601 -4601 0
-1602 -4602 0
-1603 -4603 0
-1601 -4901 0
-1602 -4902 0
-1603 -4903 0
-1701 -2301 0
-1702 -2302 0
-1703 -2303 0
-1701 -2501 0
-1702 -2502 0
-1703 -2503 0
-1701 -2701 0
-1702 -2702 0
-1703 -2703 0
-1701 -2801 0
-1702 -2802 0
-1703 -2803 0
-1701 -3101 0
-1702 -3102 0
-1703 -3103 0
-1701 -3901 0
-1702 -3902 0
-1703 -3903 0
-1701 -4001 0
-1702 -4002 0
-1703 -4003 0
-1701 -4501 0
-1702 -4502 0
-1703 -4503 0
-1701 -4601 0
-1702 -4602 0
-1703 -4603 0
-1701 -4901 0
-1702 -4902 0
-1703 -4903 0
-1801 -2101 0
-1802 -2102 0
-1803 -2103 0
-1801 -2701 0
-1802 -2702 0
-1803 -2703 0
-1801 -2801 0
-1802 -2802 0
-1803 -2803 0
-1801 -3901 0
-1802 -3902 0
-1803 -3903 0
-1801 -4501 0
-1802 -4502 0
-1803 -4503 0
-1801 -4601 0
-1802 -4602 0
-1803 -4603 0
-1801 -4701 0
-1802 -4702 0
-1803 -4703 0
-1801 -4801 0
-1802 -4802 0
-1803 -4803 0
-1801 -5001 0
-1802 -5002 0
-1803 -5003 0
-1901 -2101 0
-1902 -2102 0
-1903 -2103 0
-1901 -2401 0
-1902 -2402 0
-1903 -2403 0
-1901 -2501 0
-1902 -2502 0
-1903 -2503 0
-1901 -2701 0
-1902 -2702 0
-1903 -2703 0
-1901 -3101 0
-1902 -3102 0
-1903 -3103 0
-1901 -3401 0
-1902 -3402 0
-1903 -3403 0
-1901 -3501 0
-1902 -3502 0
-1903 -3503 0
-1901 -4501 0
-1902 -4502 0
-1903 -4503 0
-2001 -2301 0
-2002 -2302 0
-2003 -2303 0
-2001 -2701 0
-2002 -2702 0
-2003 -2703 0
-2001 -2801 0
-2002 -2802 0
-2003 -2803 0
-2001 -3001 0
-2002 -3002 0
-2003 -3003 0
-2001 -3501 0
-2002 -3502 0
-2003 -3503 0
-2001 -4201 0
-2002 -4202 0
-2003 -4203 0
-2001 -4401 0
-2002 -4402 0
-2003 -4403 0
-2001 -4501 0
-2002 -4502 0
-2003 -4503 0
-2001 -4601 0
-2002 -4602 0
-2003 -4603 0
-2101 -2201 0
-2102 -2202 0
-2103 -2203 0
-2101 -2601 0
-2102 -2602 0
-2103 -2603 0
-2101 -3001 0
-2102 -3002 0
-2103 -3003 0
-2101 -3801 0
-2102 -3802 0
-2103 -3803 0
-2101 -4001 0
-2102 -4002 0
-2103 -4003 0
-2201 -2301 0
-2202 -2302 0
-2203 -2303 0
-2201 -2401 0
-2202 -2402 0
-2203 -2403 0
-2201 -3201 0
-2202 -3202 0
-2203 -3203 0
-2201 -3501 0
-2202 -3502 0
-2203 -3503 0
-2201 -3901 0
-2202 -3902 0
-2203 -3903 0
-2201 -4301 0
-2202 -4302 0
-2203 -4303 0
-2201 -4501 0
-2202 -4502 0
-2203 -4503 0
-2201 -4601 0
-2202 -4602 0
-2203 -4603 0
-2201 -4901 0
-2202 -4902 0
-2203 -4903 0
-2301 -2401 0
-2302 -2402 0
-2303 -2403 0
-2301 -2601 0
-2302 -2602 0
-2303 -2603 0
-2301 -3601 0
-2302 -3602 0
-2303 -3603 0
-2301 -4001 0
-2302 -4002 0
-2303 -4003 0
-2301 -4201 0
-2302 -4202 0
-2303 -4203 0
-2301 -4701 0
-2302 -4702 0
-2303 -4703 0
-2301 -4801 0
-2302 -4802 0
-2303 -4803 0
-2401 -2501 0
-2402 -2502 0
-2403 -2503 0
-2401 -2901 0
-2402 -2902 0
-2403 -2903 0
-2401 -3001 0
-2402 -3002 0
-2403 -3003 0
-2401 -3101 0
-2402 -3102 0
-2403 -3103 0
-2401 -3201 0
-2402 -3202 0
-2403 -3203 0
-2401 -4401 0
-2402 -4402 0
-2403 -4403 0
-2401 -4801 0
-2402 -4802 0
-2403 -4803 0
-2501 -2701 0
-2502 -2702 0
-2503 -2703 0
-2501 -2801 0
-2502 -2802 0
-2503 -2803 0
-2501 -2901 0
-2502 -2902 0
-2503 -2903 0
-2501 -3201 0
-2502 -3202 0
-2503 -3203 0
-2501 -3801 0
-2502 -3802 0
-2503 -3803 0
-2501 -4401 0
-2502 -4402 0
-2503 -4403 0
-2601 -3501 0
-2602 -3502 0
-2603 -3503 0
-2601 -3801 0
-2602 -3802 0
-2603 -3803 0
-2601 -4001 0
-2602 -4002 0
-2603 -4003 0
-2601 -4401 0
-2602 -4402 0
-2603 -4403 0
-2601 -4501 0
-2602 -4502 0
-2603 -4503 0
-2601 -4901 0
-2602 -4902 0
-2603 -4903 0
-2701 -3001 0
-2702 -3002 0
-2703 -3003 0
-2701 -3201 0
-2702 -3202 0
-2703 -3203 0
-2701 -4001 0
-2702 -4002 0
-2703 -4003 0
-2701 -4501 0
-2702 -4502 0
-2703 -4503 0
-2701 -4601 0
-2702 -4602 0
-2703 -4603 0
-2701 -4701 0
-2702 -4702 0
-2703 -4703 0
-2801 -3001 0
-2802 -3002 0
-2803 -3003 0
-2801 -3201 0
-2802 -3202 0
-2803 -3203 0
-2801 -3701 0
-2802 -3702 0
-2803 -3703 0
-2801 -3901 0
-2802 -3902 0
-2803 -3903 0
-2801 -4101 0
-2802 -4102 0
-2803 -4103 0
-2801 -4201 0
-2802 -4202 0
-2803 -4203 0
-2901 -3101 0
-2902 -3102 0
-2903 -3103 0
-2901 -3501 0
-2902 -3502 0
-2903 -3503 0
-2901 -3601 0
-2902 -3602 0
-2903 -3603 0
-2901 -3701 0
-2902 -3702 0
-2903 -3703 0
-2901 -3801 0
-2902 -3802 0
-2903 -3803 0
-2901 -3901 0
-2902 -3902 0
-2903 -3903 0
-2901 -4401 0
-2902 -4402 0
-2903 -4403 0
-2901 -4701 0
-2902 -4702 0
-2903 -4703 0
-3001 -3101 0
-3002 -3102 0
-3003 -3103 0
-3001 -3401 0
-3002 -3402 0
-3003 -3403 0
-3001 -3501 0
-3002 -3502 0
-3003 -3503 0
-3001 -3601 0
-3002 -3602 0
-3003 -3603 0
-3001 -4001 0
-3002 -4002 0
-3003 -4003 0
-3001 -4401 0
-3002 -4402 0
-3003 -4403 0
-3001 -4801 0
-3002 -4802 0
-3003 -4803 0
-3001 -5001 0
-3002 -5002 0
-3003 -5003 0
-3101 -3301 0
-3102 -3302 0
-3103 -3303 0
-3101 -3401 0
-3102 -3402 0
-3103 -3403 0
-3101 -3801 0
-3102 -3802 0
-3103 -3803 0
-3101 -4101 0
-3102 -4102 0
-3103 -4103 0
-3101 -4401 0
-3102 -4402 0
-3103 -4403 0
-3101 -4501 0
-3102 -4502 0
-3103 -4503 0
-3101 -4601 0
-3102 -4602 0
-3103 -4603 0
-3201 -4101 0
-3202 -4102 0
-3203 -4103 0
-3201 -4201 0
-3202 -4202 0
-3203 -4203 0
-3201 -4901 0
-3202 -4902 0
-3203 -4903 0
-3301 -3601 0
-3302 -3602 0
-3303 -3603 0
-3301 -3701 0
-3302 -3702 0
-3303 -3703 0
-3301 -3801 0
-3302 -3802 0
-3303 -3803 0
-3301 -4101 0
-3302 -4102 0
-3303 -4103 0
-3301 -4301 0
-3302 -4302 0
-3303 -4303 0
-3301 -4501 0
-3302 -4502 0
-3303 -4503 0
-3301 -4601 0
-3302 -4602 0
-3303 -4603 0
-3301 -4901 0
-3302 -4902 0
-3303 -4903 0
-3401 -4001 0
-3402 -4002 0
-3403 -4003 0
-3401 -4101 0
-3402 -4102 0
-3403 -4103 0
-3401 -4201 0
-3402 -4202 0
-3403 -4203 0
-3401 -4501 0
-3402 -4502 0
-3403 -4503 0
-3401 -4801 0
-3402 -4802 0
-3403 -4803 0
-3401 -5001 0
-3402 -5002 0
-3403 -5003 0
-3501 -4001 0
-3502 -4002 0
-3503 -4003 0
-3501 -4301 0
-3502 -4302 0
-3503 -4303 0
-3501 -4401 0
-3502 -4402 0
-3503 -4403 0
-3501 -4501 0
-3502 -4502 0
-3503 -4503 0
-3501 -4901 0
-3502 -4902 0
-3503 -4903 0
-3601 -3901 0
-3602 -3902 0
-3603 -3903 0
-3601 -4101 0
-3602 -4102 0
-3603 -4103 0
-3601 -4301 0
-3602 -4302 0
-3603 -4303 0
-3601 -4501 0
-3602 -4502 0
-3603 -4503 0
-3601 -4801 0
-3602 -4802 0
-3603 -4803 0
-3701 -4601 0
-3702 -4602 0
-3703 -4603 0
-3701 -4801 0
-3702 -4802 0
-3703 -4803 0
-3801 -4001 0
-3802 -4002 0
-3803 -4003 0
-3801 -4101 0
-3802 -4102 0
-3803 -4103 0
-3801 -4601 0
-3802 -4602 0
-3803 -4603 0
-3801 -5001 0
-3802 -5002 0
-3803 -5003 0
-3901 -4001 0
-3902 -4002 0
-3903 -4003 0
-3901 -4601 0
-3902 -4602 0
-3903 -4603 0
-3901 -4701 0
-3902 -4702 0
-3903 -4703 0
-3901 -4901 0
-3902 -4902 0
-3903 -4903 0
-3901 -5001 0
-3902 -5002 0
-3903 -5003 0
-4001 -4301 0
-4002 -4302 0
-4003 -4303 0
-4001 -4801 0
-4002 -4802 0
-4003 -4803 0
-4101 -4301 0
-4102 -4302 0
-4103 -4303 0
-4101 -4501 0
-4102 -4502 0
-4103 -4503 0
-4101 -4601 0
-4102 -4602 0
-4103 -4603 0
-4101 -4801 0
-4102 -4802 0
-4103 -4803 0
-4101 -4901 0
-4102 -4902 0
-4103 -4903 0
-4201 -4501 0
-4202 -4502 0
-4203 -4503 0
-4201 -4801 0
-4202 -4802 0
-4203 -4803 0
-4201 -4901 0
-4202 -4902 0
-4203 -4903 0
-4201 -5001 0
-4202 -5002 0
-4203 -5003 0
-4301 -4701 0
-4302 -4702 0
-4303 -4703 0
-4401 -4601 0
-4402 -4602 0
-4403 -4603 0
-4601 -4701 0
-4602 -4702 0
-4603 -4703 0
-4601 -4901 0
-4602 -4902 0
-4603 -4903 0
-4701 -4801 0
-4702 -4802 0
-4703 -4803 0
-4701 -5001 0
-4702 -5002 0
-4703 -5003 0
-4801 -4901 0
-4802 -4902 0
-4803 -4903 0
-4801 -5001 0
-4802 -5002 0
-4803 -5003 0
